outputs/case_451.model.txt
broker_fault = False
agent_rules_applied = False
duty_of_fidelity = False
agent_type = 2
deposit_amount = 0
liability_insurance = True
damage_to_insured = False
duty_of_care = False
minimum_deposit_amount = 1000000
bank_agent_business = False
broker_duty_ok = False
fee_charged = 0
bank_approved_by_authority = False
license_held = True
broker_rules_applied = False
approved_by_authority = True
written_report_provided = False
bank_broker_business = False
guarantee_insurance = True
fee_disclosed = False
violate_business_management = False
violate_broker_report_rule = False
violate_other_related_rules = False
violate_finance_management = False
violation_other_related_rules = False
liability_for_damage = False
correction_or_penalty_required = False
deposit_and_insurance_ok = False
insurance_coverage_ok = True
violation_any = False
bank_compliance_ok = False
violation_finance_or_business_management = False
broker_report_and_fee_ok = False
penalty = False
violation_broker_report_rule = False
bank_permission_ok = False
business_allowed = False
license_required = True